%NProcShared=16
%Mem=32GB
%Chk=02_h2o2_opt_freq.chk
# wB97X-D/6-31+G(d,p) opt freq SCRF=(SMD,Solvent=Water) EmpiricalDispersion=GD3BJ

Microdroplet cluster model

0 1
O       -0.567479       0.436147       0.243424
O        0.582484      -0.450721       0.170520
H       -1.208790      -0.172715      -0.169768
H        1.193785       0.187288      -0.244176
O        0.000000      -3.100000       0.000000
H        0.621782      -3.240179       0.714270
H        0.476942      -3.361023      -0.787933
O        0.000000       0.000000      -3.100000
H        0.049094      -0.724465      -3.723847
H        0.746653       0.557200      -3.320187
O        0.000000       0.000000       3.100000
H        0.392264       0.869687       3.021142
H        0.023296      -0.355152       2.211310
O        0.000000       3.100000       0.000000
H        0.681918       3.719325       0.260517
H       -0.267282       2.679612       0.817484
O       -3.100000      -3.100000       0.000000
H       -2.785306      -2.500710       0.676952
H       -2.317060      -3.570246      -0.286911
O       -3.100000       0.000000      -3.100000
H       -2.967976       0.354079      -3.979570
H       -2.751143      -0.890350      -3.144958
O       -3.100000       0.000000       3.100000
H       -4.052626      -0.051842       3.179131
H       -2.776080      -0.741501       3.611564
O       -3.100000       3.100000       0.000000
H       -3.496847       2.789971       0.814150
H       -3.769037       3.659090      -0.395289
O        0.000000       3.100000      -3.100000
H       -0.036351       4.031784      -2.883432
H        0.879595       2.827112      -2.838678
O        3.100000       0.000000       3.100000
H        3.282987       0.932417       2.983553
H        2.785230      -0.071975       4.001213
O       -1.550000       1.550000       4.650000
H       -1.477731       2.197718       3.948799
H       -2.017640       0.815982       4.251284
O        4.650000      -1.550000      -1.550000
H        5.489481      -1.115672      -1.398091
H        4.375873      -1.246216      -2.415456
O        4.650000      -1.550000       1.550000
H        5.384886      -1.001533       1.275099
H        3.939722      -0.931347       1.720935
O        4.650000       1.550000      -1.550000
H        5.370742       1.468565      -2.174775
H        4.754591       0.800230      -0.964038
O       -3.100000       3.100000      -3.100000
H       -3.906293       3.075785      -2.584490
H       -2.704654       3.945551      -2.887422
O        3.100000      -3.100000       3.100000
H        3.230696      -3.758366       3.782582
H        2.628448      -2.391074       3.537616
O       -6.200000       0.000000       0.000000
H       -6.018592      -0.069774      -0.937373
H       -7.107385       0.301486       0.046951
O        0.000000      -6.200000       0.000000
H        0.344622      -6.836443       0.626595
H        0.031679      -6.652163      -0.843202
O        0.000000       0.000000       6.200000
H        0.734206      -0.237606       5.633493
H        0.270698      -0.281158       7.074138
O       -4.650000      -4.650000      -1.550000
H       -4.295062      -5.424327      -1.986901
H       -4.234848      -4.649829      -0.687391
