&GLOBAL
  PROJECT co2_interface_aimd
  RUN_TYPE MD
  PRINT_LEVEL LOW
&END GLOBAL

&MOTION
  &MD
    ENSEMBLE NVT
    STEPS 10000
    TIMESTEP 0.5
    TEMPERATURE 300.0
    &THERMOSTAT
      TYPE NOSE
      &NOSE
        TIMECON 50.0
      &END
    &END THERMOSTAT
  &END MD
  &PRINT
    &TRAJECTORY ON
      &EACH
        MD 5
      &END
    &END
    &VELOCITIES ON
      &EACH
        MD 50
      &END
    &END
  &END PRINT
&END MOTION

&FORCE_EVAL
  METHOD QS
  &DFT
    BASIS_SET_FILE_NAME BASIS_MOLOPT
    POTENTIAL_FILE_NAME GTH_POTENTIALS
    &MGRID
      CUTOFF 400
      REL_CUTOFF 50
    &END MGRID
    &QS
      EPS_DEFAULT 1.0E-12
    &END QS
    &XC
      &XC_FUNCTIONAL BLYP
      &END XC_FUNCTIONAL
      &VDW_POTENTIAL
        POTENTIAL_TYPE PAIR_POTENTIAL
        &PAIR_POTENTIAL
          TYPE DFTD3(BJ)
          PARAMETER_FILE_NAME dftd3.dat
          REFERENCE_FUNCTIONAL BLYP
        &END PAIR_POTENTIAL
      &END VDW_POTENTIAL
    &END XC
    &SCF
      SCF_GUESS ATOMIC
      EPS_SCF 1.0E-6
      MAX_SCF 50
      &OT
        MINIMIZER DIIS
        PRECONDITIONER FULL_SINGLE_INVERSE
      &END OT
      &OUTER_SCF
        EPS_SCF 1.0E-6
        MAX_SCF 20
      &END OUTER_SCF
    &END SCF
  &END DFT

  &SUBSYS
    &CELL
      ABC 12.000000 12.000000 30.800000
      ALPHA_BETA_GAMMA 90.00 90.00 90.00
      PERIODIC XY
    &END CELL
    &TOPOLOGY
      COORD_FILE_NAME 03_co2_slab.xyz
      COORD_FILE_FORMAT XYZ
    &END TOPOLOGY
    &KIND C
      BASIS_SET DZVP-MOLOPT-SR-GTH
      POTENTIAL GTH-BLYP-q4
    &END KIND
    &KIND H
      BASIS_SET DZVP-MOLOPT-SR-GTH
      POTENTIAL GTH-BLYP-q1
    &END KIND
    &KIND O
      BASIS_SET DZVP-MOLOPT-SR-GTH
      POTENTIAL GTH-BLYP-q6
    &END KIND
  &END SUBSYS
&END FORCE_EVAL
